54803
41, 51, 40, 7, 37, 20, 50, 24, 35, 5, 13, 43, 3, 6, 28, 55, 26, 49, 21, 29, 22, 10, 16, 46, 39, 36, 15, 52, 45, 11, 25, 31, 1, 27, 33, 42, 2, 9, 14, 12, 18, 4, 30, 47, 54, 34, 53, 23, 17, 48, 19, 44, 38, 8, 32
